p cnf 123 434
7 -5 0
7 6 0
5 -6 -7 0
8 -4 0
8 7 0
4 -7 -8 0
3 8 -9 0
-3 -8 -9 0
3 -8 9 0
-3 8 9 0
-2 9 -10 0
2 -9 -10 0
-2 -9 10 0
2 9 10 0
-1 10 -11 0
1 -10 -11 0
-1 -10 11 0
1 10 11 0
12 -6 0
12 3 0
6 -3 -12 0
13 2 0
13 12 0
-2 -12 -13 0
-15 -2 0
-15 14 0
2 -14 15 0
17 -4 0
17 16 0
4 -16 -17 0
18 -2 0
18 17 0
2 -17 -18 0
19 -1 0
19 -4 0
1 4 -19 0
-18 19 -20 0
18 -19 -20 0
-18 -19 20 0
18 19 20 0
21 15 0
21 20 0
-15 -20 -21 0
-22 -13 0
-22 21 0
13 -21 22 0
24 -4 0
24 23 0
4 -23 -24 0
-25 -16 0
-25 24 0
16 -24 25 0
-26 25 0
-26 -19 0
-25 19 26 0
26 3 -27 0
-26 -3 -27 0
26 -3 27 0
-26 3 27 0
-22 -27 -28 0
22 27 -28 0
-22 27 28 0
22 -27 28 0
23 -6 -29 0
-23 6 -29 0
23 6 29 0
-23 -6 29 0
-28 -29 -30 0
28 29 -30 0
-28 29 30 0
28 -29 30 0
31 -11 0
31 30 0
11 -30 -31 0
14 5 -32 0
-14 -5 -32 0
14 -5 32 0
-14 5 32 0
-32 33 -34 0
32 -33 -34 0
-32 -33 34 0
32 33 34 0
-35 -26 0
-35 -24 0
26 24 35 0
36 2 0
36 3 0
-2 -3 -36 0
37 -26 0
37 36 0
26 -36 -37 0
-38 35 0
-38 37 0
-35 -37 38 0
34 38 -39 0
-34 -38 -39 0
34 -38 39 0
-34 38 39 0
40 -31 0
40 -39 0
31 39 -40 0
3 -41 -42 0
-3 41 -42 0
3 41 42 0
-3 -41 42 0
-43 40 0
-43 -42 0
-40 42 43 0
44 18 0
44 2 0
-18 -2 -44 0
45 23 0
45 37 0
-23 -37 -45 0
46 44 0
46 45 0
-44 -45 -46 0
-48 -47 0
-48 -23 0
47 23 48 0
49 48 0
49 -32 0
-48 32 -49 0
-46 -49 -50 0
46 49 -50 0
-46 49 50 0
46 -49 50 0
-51 43 0
-51 50 0
-43 -50 51 0
-52 6 0
-52 5 0
-6 -5 52 0
53 21 0
53 52 0
-21 -52 -53 0
53 41 -54 0
-53 -41 -54 0
53 -41 54 0
-53 41 54 0
-55 -1 0
-55 20 0
1 -20 55 0
24 -55 -56 0
-24 55 -56 0
24 55 56 0
-24 -55 56 0
57 -14 0
57 1 0
14 -1 -57 0
-58 57 0
-58 16 0
-57 -16 58 0
59 19 0
59 4 0
-19 -4 -59 0
60 -59 0
60 -9 0
59 9 -60 0
61 58 0
61 -60 0
-58 60 -61 0
56 -61 -62 0
-56 61 -62 0
56 61 62 0
-56 -61 62 0
-63 -5 0
-63 25 0
5 -25 63 0
-64 16 0
-64 3 0
-16 -3 64 0
63 -64 -65 0
-63 64 -65 0
63 64 65 0
-63 -64 65 0
66 62 0
66 -65 0
-62 65 -66 0
-54 66 -67 0
54 -66 -67 0
-54 -66 67 0
54 66 67 0
68 -51 0
68 -67 0
51 67 -68 0
69 25 0
69 -57 0
-25 57 -69 0
-71 -69 0
-71 70 0
69 -70 71 0
-72 -14 0
-72 -6 0
14 6 72 0
-73 -71 0
-73 -72 0
71 72 73 0
-74 25 0
-74 -41 0
-25 41 74 0
-75 47 0
-75 -74 0
-47 74 75 0
18 23 -76 0
-18 -23 -76 0
18 -23 76 0
-18 23 76 0
-75 76 -77 0
75 -76 -77 0
-75 -76 77 0
75 76 77 0
-73 77 -78 0
73 -77 -78 0
-73 -77 78 0
73 77 78 0
-47 -17 -79 0
47 17 -79 0
-47 17 79 0
47 -17 79 0
41 -57 -80 0
-41 57 -80 0
41 57 80 0
-41 -57 80 0
-81 -47 0
-81 -17 0
47 17 81 0
-82 -80 0
-82 -81 0
80 81 82 0
-83 79 0
-83 82 0
-79 -82 83 0
84 -78 0
84 -83 0
78 83 -84 0
-27 -48 -85 0
27 48 -85 0
-27 48 85 0
27 -48 85 0
-57 -26 -86 0
57 26 -86 0
-57 26 86 0
57 -26 86 0
87 -1 0
87 86 0
1 -86 -87 0
81 -33 -88 0
-81 33 -88 0
81 33 88 0
-81 -33 88 0
89 87 0
89 88 0
-87 -88 -89 0
90 16 0
90 36 0
-16 -36 -90 0
91 89 0
91 -90 0
-89 90 -91 0
-92 5 0
-92 33 0
-5 -33 92 0
91 -92 -93 0
-91 92 -93 0
91 92 93 0
-91 -92 93 0
-94 85 0
-94 -93 0
-85 93 94 0
-95 84 0
-95 -94 0
-84 94 95 0
-96 68 0
-96 95 0
-68 -95 96 0
-97 52 0
-97 -5 0
-52 5 97 0
-97 -98 -99 0
97 98 -99 0
-97 98 99 0
97 -98 99 0
-100 -80 0
-100 -33 0
80 33 100 0
101 100 0
101 14 0
-100 -14 -101 0
102 9 0
102 -15 0
-9 15 -102 0
-103 -102 0
-103 19 0
102 -19 103 0
-101 103 -104 0
101 -103 -104 0
-101 -103 104 0
101 103 104 0
105 -99 0
105 -104 0
99 104 -105 0
-106 -14 0
-106 48 0
14 -48 106 0
7 -18 -107 0
-7 18 -107 0
7 18 107 0
-7 -18 107 0
108 106 0
108 -107 0
-106 107 -108 0
109 -98 0
109 -10 0
98 10 -109 0
-110 108 0
-110 -109 0
-108 109 110 0
105 -110 -111 0
-105 110 -111 0
105 110 111 0
-105 -110 111 0
112 -96 0
112 -111 0
96 111 -112 0
-113 69 0
-113 22 0
-69 -22 113 0
-53 -13 -114 0
53 13 -114 0
-53 13 114 0
53 -13 114 0
-115 18 0
-115 114 0
-18 -114 115 0
-116 113 0
-116 -115 0
-113 115 116 0
-41 -12 -117 0
41 12 -117 0
-41 12 117 0
41 -12 117 0
-118 74 0
-118 -15 0
-74 15 118 0
-119 -4 0
-119 118 0
4 -118 119 0
-119 -48 -120 0
119 48 -120 0
-119 48 120 0
119 -48 120 0
121 117 0
121 120 0
-117 -120 -121 0
122 116 0
122 121 0
-116 -121 -122 0
-123 -112 0
-123 122 0
112 -122 123 0
104 16 -41 -118 -94 0
112 -119 47 39 0
114 -45 26 91 0
94 82 0
10 -41 -8 106 0
98 -13 -66 0
-123 -27 0
-47 55 -59 93 0
-92 114 118 35 -41 0
86 22 0
-89 14 -3 -55 48 -99 0
35 -34 109 3 54 21 0
-43 31 -58 -103 0
-8 21 -73 -18 2 -12 0
49 102 -116 33 0
-120 75 94 -67 -13 0
-64 54 61 43 35 14 0
-79 45 -16 0
4 -5 107 14 0
37 5 -91 0
-38 3 -91 0
2 -42 -33 0
-115 31 37 83 90 -20 0
50 -2 17 0
59 -121 -60 50 -1 80 0
80 69 24 3 0
-106 -116 1 0
4 -85 118 55 -105 82 0
68 -102 -46 -29 118 115 0
-42 61 83 -73 50 0
51 83 29 42 -90 66 0
90 46 -70 63 0
62 -121 0
-64 -12 0
-51 -79 -58 -3 -117 -90 0
107 106 0
91 -54 57 -13 50 -77 0
48 122 33 -97 60 0
42 -51 -113 67 -52 0
-48 -93 21 47 0
-116 107 112 60 69 0
7 46 49 106 0
-11 -29 -81 -40 114 0
-10 82 69 105 0
107 -43 1 -58 -86 -31 0
-84 -60 0
-63 -88 -60 0
-104 -119 83 36 0
-28 -101 -35 0
-62 -3 77 0
-122 66 -84 -114 0
-78 19 -44 0
95 -120 122 0
-119 77 -20 0
54 22 0
108 -3 11 8 0
-16 81 63 78 11 18 0
-67 20 -73 -60 -95 0
-56 -45 0
121 -88 100 -14 -50 0
-83 -28 122 -91 0
-27 61 83 -46 69 96 0
-80 115 105 0
-86 -51 -16 49 45 -118 0
105 -82 103 -120 -14 0
104 -90 30 -38 50 -14 0
53 -49 -36 -108 0
5 -13 -51 4 0
59 -20 -53 39 -17 0
-99 103 -93 0
-62 -68 66 -34 0
16 26 -44 -1 109 0
123 0
